language ESSENCE' 1.0
$ loaded file: carseqdata/reginpuget4.car
letting numcars=100
letting numclasses=23
letting numoptions=5
letting optMax=[1, 2, 1, 2, 1]
letting windowSize=[2, 3, 3, 5, 5]
letting numberPerClass=[2, 2, 5, 4, 4, 1, 3, 4, 19, 7, 10, 1, 5, 2, 6, 4, 8, 1, 4, 2, 4, 1, 1]
letting optionsRequired=[[0, 0, 0, 1, 1], [0, 0, 1, 0, 1], [0, 1, 1, 1, 0], [0, 0, 0, 1, 0], [0, 1, 0, 1, 0], [1, 1, 0, 0, 1], [1, 1, 1, 0, 1], [0, 0, 1, 0, 0], [0, 1, 0, 0, 0], [1, 1, 0, 1, 0], [1, 0, 0, 0, 0], [0, 0, 1, 1, 0], [1, 1, 1, 1, 0], [1, 0, 1, 1, 0], [1, 1, 0, 0, 0], [1, 1, 1, 0, 0], [1, 0, 0, 1, 0], [1, 0, 0, 0, 1], [0, 1, 1, 0, 0], [0, 0, 0, 0, 1], [0, 1, 0, 0, 1], [1, 1, 0, 1, 1], [0, 1, 1, 0, 1]]
